40
60.0 190.0 
60.0 190.0 
60.0 190.0 
60.0 190.0 
60.0 190.0 
60.0 190.0 
60.0 190.0 
60.0 190.0 
60.0 190.0 
60.0 190.0 
60.0 190.0 
60.0 190.0 
60.0 190.0 
60.0 190.0 
60.0 190.0 
60.0 190.0 
60.0 190.0 
60.0 190.0 
60.0 190.0 
60.0 190.0 
60.0 190.0 
60.0 190.0 
60.0 190.0 
60.0 190.0 
60.0 190.0 
60.0 190.0 
60.0 190.0 
60.0 190.0 
60.0 190.0 
60.0 190.0 
60.0 190.0 
60.0 190.0 
60.0 190.0 
60.0 190.0 
60.0 190.0 
60.0 190.0 
60.0 190.0 
60.0 190.0 
60.0 190.0 
60.0 190.0 

0 6 5 4 11 12 20 
0 6 5 4 11 12 20 
0 6 5 4 11 12 20 
0 6 5 4 11 12 20 
0 6 5 4 11 12 20 
0 6 5 4 11 12 20 
0 6 5 4 11 12 20 
0 6 5 4 11 12 20 
0 6 5 4 11 12 20 
0 6 5 4 11 12 20 
0 6 5 4 11 12 20 
0 6 5 4 11 12 20 
0 6 5 4 11 12 20 
0 6 5 4 11 12 20 
0 6 5 4 11 12 20 
0 6 5 4 11 12 20 
0 6 5 4 11 12 20 
0 6 5 4 11 12 20 
0 6 5 4 11 12 20 
0 6 5 4 11 12 20 
0 6 5 4 11 12 20 
0 6 5 4 11 12 20 
0 6 5 4 11 12 20 
0 6 5 4 11 12 20 
0 6 5 4 11 12 20 
0 6 5 4 11 12 20 
0 6 5 4 11 12 20 
0 6 5 4 11 12 20 
0 6 5 4 11 12 20 
0 6 5 4 11 12 20 
0 6 5 4 11 12 20 
0 6 5 4 11 12 20 
0 6 5 4 11 12 20 
0 6 5 4 11 12 20 
0 6 5 4 11 12 20 
0 6 5 4 11 12 20 
0 6 5 4 11 12 20 
0 6 5 4 11 12 20 
0 6 5 4 11 12 20 
0 6 5 4 11 12 20 
